57 58 59 60 61 63 64 76 75 73 74 77 78 62 79 80 81 82 86 85 90 87 88 89 94 93 92 91 555 554 553 552 556 557 558 559 560 561 562 563 565 566 564 549 548 550 551 101 102 100 99 98 97 96 95 118 119 120 121 122 123 71 72 65 66 67 68 70 69 124 125 126 127 128 129 130 131 132 133 134 135 136 137 138 139 140 141 151 150 149 152 148 147 142 143 144 146 145 158 157 153 156 159 155 154 164 165 203 204 202 201 200 199 198 166 167 163 168 162 160 161 113 112 114 115 116 117 106 105 104 103 547 546 545 544 543 541 542 107 110 111 109 108 173 174 175 172 170 171 169 180 181 179 182 183 185 184 194 195 196 197 205 206 207 208 209 210 211 212 213 214 215 216 217 223 224 222 221 220 218 219 193 192 191 190 226 225 189 227 186 188 187 178 177 176 540 538 539 537 536 535 487 486 485 484 483 482 481 480 479 478 477 476 475 493 490 491 492 525 524 494 495 518 519 520 521 522 523 526 527 528 529 530 531 489 532 533 488 534 229 228 230 231 233 232 234 235 236 237 240 239 238 246 247 245 244 243 242 241 248 249 250 251 252 254 253 255 256 257 300 301 302 508 507 506 509 510 511 512 513 514 515 516 517 503 502 498 497 496 465 467 466 464 463 462 461 460 459 458 457 456 455 454 439 443 444 445 442 446 447 448 449 450 441 440 453 452 499 500 501 451 312 313 311 310 309 504 505 308 307 303 304 306 305 318 317 319 320 321 316 314 315 374 375 376 377 378 379 380 381 390 389 388 387 386 385 409 404 405 406 408 407 399 400 403 402 401 360 359 361 362 363 364 365 342 366 329 328 325 326 327 367 368 369 370 398 397 391 392 393 394 395 396 371 372 373 322 323 324 297 298 299 258 259 260 261 262 263 264 265 266 267 268 271 272 269 270 296 295 294 293 291 292 273 274 275 290 289 288 276 277 278 279 282 281 280 287 286 285 284 283 334 335 336 337 338 339 333 332 331 330 340 341 343 344 345 346 347 348 349 350 351 415 416 414 413 352 353 354 355 358 357 356 412 411 417 419 418 410 384 383 382 425 424 423 422 421 420 426 427 428 429 431 430 432 433 434 435 436 438 437 3 2 1 4 0 5 6 572 573 571 468 469 470 471 472 473 474 567 570 569 568 20 19 18 17 8 7 9 10 11 16 15 14 13 12 23 22 21 24 25 26 27 28 29 31 30 32 33 34 35 36 37 38 40 41 39 42 43 44 45 46 47 48 49 50 84 51 52 54 53 55 56 83